c preprocessed version of eil51.tsp, 51 vertices, 140 edges
p td 51 140
1 0
0 19
0 23
0 27
0 21
0 30
0 28
1 2
1 21
1 30
1 32
1 31
3 2
2 20
2 22
2 21
2 32
3 4
3 37
3 22
3 36
3 32
3 35
3 34
5 4
9 4
8 4
37 4
4 22
5 6
5 7
5 8
5 43
5 38
5 37
6 7
6 39
6 43
8 7
39 7
7 41
7 42
9 8
8 11
8 42
10 9
9 11
9 22
9 20
10 11
10 12
10 17
10 18
10 20
10 19
12 11
11 42
13 12
12 42
12 41
12 40
12 17
13 14
13 40
13 15
13 17
15 14
40 14
26 14
16 15
15 17
15 26
16 17
16 26
16 18
16 24
16 23
18 17
19 18
23 18
19 20
19 23
19 21
21 20
20 22
23 24
23 25
23 27
25 24
26 24
25 26
25 27
25 50
25 49
28 27
27 50
29 28
28 50
28 30
29 30
29 48
29 50
29 49
31 30
30 48
30 47
31 32
31 46
31 47
33 32
34 32
46 32
33 34
33 45
33 46
34 35
34 45
36 35
35 44
35 45
36 37
36 44
38 37
37 44
38 39
38 43
38 44
38 45
40 39
39 41
39 43
40 41
42 41
44 45
46 45
46 47
48 47
47 49
48 49
50 49
